22	3

10	10	10	

0	0	0	0	3	2	3	4	
5	3	5	2	2	5	6	
1	5	4	3	2	6	8	
5	5	2	2	2	7	8	
3	4	1	4	2	9	11	
2	5	5	4	2	10	11	
3	3	5	2	2	9	10	
2	2	4	4	2	9	12	
6	3	2	2	1	14	
1	3	2	4	2	13	16	
3	3	3	2	1	13	
5	4	1	4	2	13	15	
9	1	4	4	1	18	
2	2	2	2	1	19	
2	5	5	4	1	18	
5	1	5	4	2	17	19	
6	4	5	4	1	20	
4	3	2	3	2	20	21	
6	5	3	3	1	20	
2	2	4	6	1	22	
8	1	6	2	1	22	
0	0	0	0	0	
